6 24 4 10
3 1 6 14 8 14 18 20 9 17 6 12 2 13 18 11 19 16 12 4 18 20 10 13 
4.79 6.32 3.14 1.61 4.34 3.21 0.27 0.81 3.02 3.54 4.18 0.88 2.56 3.79 5.73 0.64 7.96 2.65 1.53 4.77 4.74 6.1 7.56 1.12 
6.91 7.4 4.96 2.16 7.13 2.51 2.69 0.81 1.41 1.57 5.89 5.82 4.95 3.6 7.01 4.83 1.08 7.97 0.88 3.42 5.75 0.81 1.93 1.67 
5.39 4.6 5 5.13 4.99 6.59 2.52 6.62 1.72 2.05 5.73 0.19 6.85 6.59 2.95 1.06 5.57 0.23 4.28 3.09 6.5 7.53 3.37 3.13 
1.86 0.53 2.91 7.44 0.15 7.64 6.58 4.26 6.39 3.59 5.26 6.25 6.16 7.75 7.14 7.02 0.93 4.48 6.75 0.54 6.53 7.21 5.66 7.64 
4 4 4 4 4 4 4 4 4 4 4 4 4 4 4 4 4 4 4 4 4 4 4 4 
4.14 0.63 0.34 6.53 4.08 6.61 6.4 1.99 7.29 1.35 7.11 0.78 1.33 0.97 5.42 1.14 3.78 1.47 0.32 7.79 7.03 1.3 5.43 1 
1 1 1 1 1 1 1 1 1 1 1 1 1 1 1 1 1 1 1 1 1 1 1 1 
1 1 1 1 1 1 1 1 1 1 1 1 1 1 1 1 1 1 1 1 1 1 1 1 
1 1 1 1 1 1 1 1 1 1 1 1 1 1 1 1 1 1 1 1 1 1 1 1 
1 1 1 1 1 1 1 1 1 1 1 1 1 1 1 1 1 1 1 1 1 1 1 1 
1 1 1 1 1 1 1 1 1 1 1 1 1 1 1 1 1 1 1 1 1 1 1 1 
1 1 1 1 1 1 1 1 1 1 1 1 1 1 1 1 1 1 1 1 1 1 1 1 
0.01 0.01 0.01 0.01 0.01 0.01 0.01 0.01 0.01 0.01 0.01 0.01 0.01 0.01 0.01 0.01 0.01 0.01 0.01 0.01 0.01 0.01 0.01 0.01 
0.02 0.02 0.02 0.02 0.02 0.02 0.02 0.02 0.02 0.02 0.02 0.02 0.02 0.02 0.02 0.02 0.02 0.02 0.02 0.02 0.02 0.02 0.02 0.02 
0.03 0.03 0.03 0.03 0.03 0.03 0.03 0.03 0.03 0.03 0.03 0.03 0.03 0.03 0.03 0.03 0.03 0.03 0.03 0.03 0.03 0.03 0.03 0.03 
0.04 0.04 0.04 0.04 0.04 0.04 0.04 0.04 0.04 0.04 0.04 0.04 0.04 0.04 0.04 0.04 0.04 0.04 0.04 0.04 0.04 0.04 0.04 0.04 
0.05 0.05 0.05 0.05 0.05 0.05 0.05 0.05 0.05 0.05 0.05 0.05 0.05 0.05 0.05 0.05 0.05 0.05 0.05 0.05 0.05 0.05 0.05 0.05 
1 1 1 1 1 1 1 1 1 1 1 1 1 1 1 1 1 1 1 1 1 1 1 1 
